Set parameter TokenServer to value "hpc-licenses.hpcc.usc.edu"
Set parameter TimeLimit to value 3600
Gurobi Optimizer version 9.5.1 build v9.5.1rc2 (linux64)
Thread count: 20 physical cores, 20 logical processors, using up to 20 threads
Optimize a model with 6007 rows, 4529 columns and 24534 nonzeros
Model fingerprint: 0x7f9a43b5
Variable types: 4506 continuous, 23 integer (23 binary)
Coefficient statistics:
  Matrix range     [1e+00, 1e+00]
  Objective range  [2e-03, 1e+00]
  Bounds range     [1e+00, 1e+00]
  RHS range        [1e+00, 1e+02]
Presolve removed 1520 rows and 1515 columns
Presolve time: 0.07s
Presolved: 4487 rows, 3014 columns, 21975 nonzeros
Variable types: 2994 continuous, 20 integer (20 binary)
Found heuristic solution: objective 278.8855408

Root relaxation: objective 2.869790e+02, 3206 iterations, 0.13 seconds (0.16 work units)

    Nodes    |    Current Node    |     Objective Bounds      |     Work
 Expl Unexpl |  Obj  Depth IntInf | Incumbent    BestBd   Gap | It/Node Time

     0     0  286.97903    0    4  278.88554  286.97903  2.90%     -    0s
     0     0  286.83456    0    4  278.88554  286.83456  2.85%     -    0s
     0     0  286.75161    0    4  278.88554  286.75161  2.82%     -    0s
     0     0  286.55830    0    5  278.88554  286.55830  2.75%     -    0s
H    0     0                     286.4451572  286.55830  0.04%     -    0s
     0     0  286.55598    0    5  286.44516  286.55598  0.04%     -    0s

Cutting planes:
  MIR: 143
  RLT: 26
  Relax-and-lift: 2

Explored 1 nodes (3729 simplex iterations) in 0.80 seconds (0.62 work units)
Thread count was 20 (of 20 available processors)

Solution count 2: 286.445 278.886 

Optimal solution found (tolerance 1.00e-04)
Best objective 2.864451571670e+02, best bound 2.864451571670e+02, gap 0.0000%



#########node  1
V1.8
#########node  2
0.04040404040404041,0.9595959595959596
#########node  3
1.0,0.0


Total Solving Time 1.230745553970337
obj value 286.4451571670275
Policy Regret train (Sum) 3.4466623243982886
Best Treatment Found train (%) 75.4
treatment classification acc train (%) 31.4
Policy Regret test (Sum) 33.68478658989411
Best Treatment Found test (%) 82.75
treatment classification acc test (%) 34.0
